Problem:    m1
Rows:       4
Columns:    2 (2 integer, 0 binary)
Non-zeros:  6
Status:     INTEGER OPTIMAL
Objective:  Z = 21 (MAXimum)

   No.   Row name        Activity     Lower bound   Upper bound
------ ------------    ------------- ------------- -------------
     1 Z                          21                             
     2 maquina1                    3                           3 
     3 maquina2                    3                           4 
     4 maquina3                    9                           9 

   No. Column name       Activity     Lower bound   Upper bound
------ ------------    ------------- ------------- -------------
     1 x1           *              3             0               
     2 x2           *              3             0               

Integer feasibility conditions:

KKT.PE: max.abs.err = 0.00e+00 on row 0
        max.rel.err = 0.00e+00 on row 0
        High quality

KKT.PB: max.abs.err = 0.00e+00 on row 0
        max.rel.err = 0.00e+00 on row 0
        High quality

End of output
